proyfinal/src/viki/013/experimentInOfficeAgust.take6.output/f7538448-fde3-438d-8575-22d9bc4d7cd2.als.dat
{'cnf.clauses': '118081',
 'cnf.totvars': '69608',
 'conflict literals': '50',
 'conflicts': '20',
 'decisions': '6787',
 'memused.mb': '15.30',
 'outcome': 'UNSAT',
 'propagations': '32674',
 'restarts': '1',
 'solver.msecs': 25,
 'task.msecs': 65}
