proyfinal/src/viki/013/experimentInOfficeAgust.take6.output/f7538448-fde3-438d-8575-22d9bc4d7cd2.als.out
Reading from standard input... Use '--help' for help.
============================[ Problem Statistics ]=============================
|                                                                             |
|  Number of variables:         69608                                         |
|  Number of clauses:          118081                                         |
|  Parse time:                   0.02 s                                       |
|                                                                             |
============================[ Search Statistics ]==============================
| Conflicts |          ORIGINAL         |          LEARNT          | Progress |
|           |    Vars  Clauses Literals |    Limit  Clauses Lit/Cl |          |
===============================================================================
===============================================================================
restarts              : 1
conflicts             : 20             (782 /sec)
decisions             : 6787           (0.00 % random) (265428 /sec)
propagations          : 32674          (1277826 /sec)
conflict literals     : 50             (0.00 % deleted)
Memory used           : 15.30 MB
CPU time              : 0.02557 s

UNSATISFIABLE
